RT is False
Default write of storage_offers_DA.csv just to have a file (but constraint should be inactive)
Reading model...
...model read.
creating competitive generators file...
...competitive generators recorded.
Loading data...
.. day-ahead data with real-time VRE data read.
Compiling instance...
...instance created.
Creating Offer Mitigation (model will solve as dispatch if TRUE)...
NOTE: storage offers will not be mitigated
...storage offer mitigation file created
Converting model to MPEC...
...converted
NOTE: initial MIP solve with only storage competitive to get feasible solution
Solving...

Welcome to IBM(R) ILOG(R) CPLEX(R) Interactive Optimizer 12.9.0.0
  with Simplex, Mixed Integer & Barrier Optimizers
5725-A06 5725-A29 5724-Y48 5724-Y49 5724-Y54 5724-Y55 5655-Y21
Copyright IBM Corp. 1988, 2019.  All Rights Reserved.

Type 'help' for a list of available commands.
Type 'help' followed by a command name for more
information on commands.

CPLEX> Logfile 'cplex.log' closed.
Logfile 'C:\Users\llavin\Desktop\test919\logs\tmpmd9341w4.cplex.log' open.
CPLEX> New value for parallel optimization mode: -1
CPLEX> New value for mixed integer optimality gap tolerance: 0.01
CPLEX> New value for integrality tolerance: 1e-09
CPLEX> New value for feasibility tolerance: 0.1
CPLEX> New value for deterministic time limit in ticks: 100000
CPLEX> Problem 'C:\Users\llavin\Desktop\test919\logs\tmp9w2j54ev.pyomo.lp' read.
Read time = 0.25 sec. (13.86 ticks)
CPLEX> Problem name         : C:\Users\llavin\Desktop\test919\logs\tmp9w2j54ev.pyomo.lp
Objective sense      : Maximize
Variables            :   53321  [Nneg: 1,  Box: 21806,  Free: 4416,
                                 Binary: 27098]
Objective nonzeros   :    9029
Linear constraints   :  122164  [Less: 40983,  Greater: 58612,  Equal: 22569]
  Nonzeros           :  288457
  RHS nonzeros       :   66982

Variables            : Min LB: -5000.000        Max UB: 1000000.       
Objective nonzeros   : Min   : 0.2250000        Max   : 90000.00       
Linear constraints   :
  Nonzeros           : Min   : 0.2250000        Max   : 2910000.       
  RHS nonzeros       : Min   : 0.2250000        Max   : 3000000.       
CPLEX> CPXPARAM_Parallel                                -1
CPXPARAM_Simplex_Tolerances_Feasibility          0.10000000000000001
CPXPARAM_DetTimeLimit                            100000
CPXPARAM_MIP_Tolerances_MIPGap                   0.01
CPXPARAM_MIP_Tolerances_Integrality              1.0000000000000001e-09
Tried aggregator 3 times.
MIP Presolve eliminated 88072 rows and 18952 columns.
MIP Presolve added 3355 rows and 0 columns.
MIP Presolve modified 23593 coefficients.
Aggregator did 12844 substitutions.
Reduced MIP has 24603 rows, 20969 columns, and 68905 nonzeros.
Reduced MIP has 8302 binaries, 0 generals, 0 SOSs, and 0 indicators.
Presolve time = 0.30 sec. (172.85 ticks)
Probing fixed 433 vars, tightened 2908 bounds.
Probing time = 1.23 sec. (902.47 ticks)
Tried aggregator 2 times.
MIP Presolve eliminated 969 rows and 869 columns.
MIP Presolve modified 2211 coefficients.
Aggregator did 53 substitutions.
Reduced MIP has 23581 rows, 20047 columns, and 65929 nonzeros.
Reduced MIP has 7868 binaries, 0 generals, 0 SOSs, and 0 indicators.
Presolve time = 0.11 sec. (67.49 ticks)
Probing fixed 4 vars, tightened 14 bounds.
Probing time = 0.17 sec. (116.68 ticks)
Clique table members: 8444.
MIP emphasis: balance optimality and feasibility.
MIP search method: dynamic search.
Parallel mode: opportunistic, using up to 32 threads.
Root relaxation solution time = 0.33 sec. (235.12 ticks)

        Nodes                                         Cuts/
   Node  Left     Objective  IInf  Best Integer    Best Bound    ItCnt     Gap

      0     0    17328.5861  1644                  17328.5861     3853         
      0     0    17328.5861   724                  Cuts: 1051     4225         
      0     0    17328.5861   567                   Cuts: 885     4488         
      0     0    17328.5861   477                   Cuts: 656     4640         
      0     0    17328.5861   433                   Cuts: 328     4700         
      0     0    17328.5861   404                   Cuts: 179     4747         
      0     0    17328.5861   385                   Cuts: 137     4774         
      0     0    17328.5861   364                   Cuts: 139     4791         
      0     0    17328.5861   355                   Cuts: 120     4802         
      0     0    17328.5861   353                   Cuts: 109     4808         
      0     0    17328.5861   354                   Cuts: 106     4814         
      0     6    15746.8960   352                    Cuts: 82     4875         
Elapsed time = 12.06 sec. (7601.83 ticks, tree = 0.02 MB, solutions = 0)
    379   100    14867.7225   283                  17328.5861     8082         
    894   383    infeasible                        17328.5861    12833         
   1604   800    17326.1977   271                  17328.5861    17818         
   2399  1103   -40860.7040   252                  17328.5861    21052         
   3448  1817   -23910.9382   254                  17328.5861    27369         
   4524  3042     7044.8740   234                  17328.5861    31651         
   5358  3915    17300.2741   260                  17328.5861    32025         
   6176  4490   -72524.0146   219                  17328.5861    32378         
*  6474+ 2203                        16000.3970    17328.5861             8.30%
*  7367  4883      integral     0    17325.8543    17328.5861    32621    0.02%
Elapsed time = 24.09 sec. (9810.05 ticks, tree = 36.78 MB, solutions = 8)

Clique cuts applied:  38
Implied bound cuts applied:  86
Flow cuts applied:  919
Mixed integer rounding cuts applied:  27
Gomory fractional cuts applied:  92

Root node processing (before b&c):
  Real time             =   10.16 sec. (7573.35 ticks)
Parallel b&c, 32 threads:
  Real time             =   14.50 sec. (2723.10 ticks)
  Sync time (average)   =    0.67 sec.
  Wait time (average)   =    0.00 sec.
                          ------------
Total (root+branch&cut) =   24.66 sec. (10296.45 ticks)

Solution pool: 8 solutions saved.

MIP - Integer optimal, tolerance (0.01/1e-06):  Objective =  1.7325854339e+04
Current MIP best bound =  1.7328586077e+04 (gap = 2.73174, 0.02%)
Solution time =   24.69 sec.  Iterations = 34376  Nodes = 8158 (32)
Deterministic time = 10296.60 ticks  (417.07 ticks/sec)

CPLEX> Incumbent solution written to file 'C:\Users\llavin\Desktop\test919\logs\tmpkjfx3i0g.cplex.sol'.
CPLEX> NOTE: no warmstart specified for MIP iteration, default behavior is true
NOTE: resolving with all competitive generators using storage-only solution to warmstart
Solving...

Welcome to IBM(R) ILOG(R) CPLEX(R) Interactive Optimizer 12.9.0.0
  with Simplex, Mixed Integer & Barrier Optimizers
5725-A06 5725-A29 5724-Y48 5724-Y49 5724-Y54 5724-Y55 5655-Y21
Copyright IBM Corp. 1988, 2019.  All Rights Reserved.

Type 'help' for a list of available commands.
Type 'help' followed by a command name for more
information on commands.

CPLEX> Logfile 'cplex.log' closed.
Logfile 'C:\Users\llavin\Desktop\test919\logs\tmpo89yb8h4.cplex.log' open.
CPLEX> New value for parallel optimization mode: -1
CPLEX> New value for mixed integer optimality gap tolerance: 0.01
CPLEX> New value for integrality tolerance: 1e-09
CPLEX> New value for feasibility tolerance: 0.1
CPLEX> New value for deterministic time limit in ticks: 100000
CPLEX> Problem 'C:\Users\llavin\Desktop\test919\logs\tmp9uvgxpg8.pyomo.lp' read.
Read time = 0.25 sec. (13.88 ticks)
CPLEX> MIP start file 'C:\Users\llavin\Desktop\test919\logs\tmp59oskfcg.cplex.mst' read.
CPLEX> Problem name         : C:\Users\llavin\Desktop\test919\logs\tmp9uvgxpg8.pyomo.lp
Objective sense      : Maximize
Variables            :   54041  [Nneg: 1,  Box: 22526,  Free: 4416,
                                 Binary: 27098]
Objective nonzeros   :    9725
Linear constraints   :  122164  [Less: 40983,  Greater: 58612,  Equal: 22569]
  Nonzeros           :  288457
  RHS nonzeros       :   66982

Variables            : Min LB: -5000.000        Max UB: 1000000.       
Objective nonzeros   : Min   : 0.2250000        Max   : 90000.00       
Linear constraints   :
  Nonzeros           : Min   : 0.2250000        Max   : 2910000.       
  RHS nonzeros       : Min   : 0.2250000        Max   : 3000000.       
CPLEX> CPXPARAM_Parallel                                -1
CPXPARAM_Simplex_Tolerances_Feasibility          0.10000000000000001
CPXPARAM_DetTimeLimit                            100000
CPXPARAM_MIP_Tolerances_MIPGap                   0.01
CPXPARAM_MIP_Tolerances_Integrality              1.0000000000000001e-09
Warning:  No solution found from 1 MIP starts.
Retaining values of one MIP start for possible repair.
Tried aggregator 3 times.
MIP Presolve eliminated 88072 rows and 19672 columns.
MIP Presolve added 3355 rows and 0 columns.
MIP Presolve modified 23593 coefficients.
Aggregator did 12844 substitutions.
Reduced MIP has 24603 rows, 20969 columns, and 68905 nonzeros.
Reduced MIP has 8302 binaries, 0 generals, 0 SOSs, and 0 indicators.
Presolve time = 0.30 sec. (173.21 ticks)
Probing fixed 433 vars, tightened 2908 bounds.
Probing time = 1.23 sec. (902.47 ticks)
Tried aggregator 2 times.
MIP Presolve eliminated 969 rows and 869 columns.
MIP Presolve modified 2211 coefficients.
Aggregator did 53 substitutions.
Reduced MIP has 23581 rows, 20047 columns, and 65929 nonzeros.
Reduced MIP has 7868 binaries, 0 generals, 0 SOSs, and 0 indicators.
Presolve time = 0.11 sec. (67.50 ticks)
Probing fixed 4 vars, tightened 14 bounds.
Probing time = 0.19 sec. (116.68 ticks)
Clique table members: 8444.
MIP emphasis: balance optimality and feasibility.
MIP search method: dynamic search.
Parallel mode: opportunistic, using up to 32 threads.
Root relaxation solution time = 0.31 sec. (238.15 ticks)

        Nodes                                         Cuts/
   Node  Left     Objective  IInf  Best Integer    Best Bound    ItCnt     Gap

      0     0    71429.2498  1719                  71429.2498     3836         
      0     0    71191.0533   712                  Cuts: 1126     4252         
      0     0    71048.7075   533                   Cuts: 830     4462         
      0     0    71014.9961   489                   Cuts: 535     4576         
      0     0    70996.5535   458                   Cuts: 271     4620         
      0     0    70995.0317   434                   Cuts: 233     4655         
      0     0    70995.0317   437                   Cuts: 162     4673         
      0     0    70995.0317   421                   Cuts: 174     4692         
      0     0    70995.0317   413                   Cuts: 151     4706         
      0     0    70995.0317   409                   Cuts: 141     4713         
Repair heuristic found nothing.
      0     2    70995.0317   409                    Cuts: 80     4713         
Elapsed time = 11.80 sec. (6631.12 ticks, tree = 0.02 MB, solutions = 0)
    375   161    65378.6058   306                  70603.8067     7124         
    903   310    65143.9856   300                  70603.8067     8732         
   1455   887    67433.9756   297                  70603.8067    17577         
   2227  1722    70254.9871   342                  70603.8067    31482         
   3238  1993    70506.4249   329                  70603.8067    33961         
   4430  2406    65525.8540   291                  70603.8067    37003         
   5427  4051    66763.2263   278                  70603.8067    41056         
   6400  3701    47563.0208   303                  70603.8067    40881         
*  7150+ 1433                        65143.9860    70603.8067             8.38%
*  9185  6775      integral     0    67267.0163    70603.8067    48822    4.96%
   9239  6406   -16300.8712   112    67267.0163    70603.8067    46803    4.96%
Elapsed time = 25.17 sec. (9755.74 ticks, tree = 53.83 MB, solutions = 5)

Clique cuts applied:  31
Implied bound cuts applied:  77
Flow cuts applied:  929
Mixed integer rounding cuts applied:  33
Gomory fractional cuts applied:  109

Root node processing (before b&c):
  Real time             =    9.61 sec. (6584.43 ticks)
Parallel b&c, 32 threads:
  Real time             =   19.25 sec. (5100.48 ticks)
  Sync time (average)   =    0.74 sec.
  Wait time (average)   =    0.00 sec.
                          ------------
Total (root+branch&cut) =   28.86 sec. (11684.91 ticks)

Solution pool: 5 solutions saved.

MIP - Integer optimal solution:  Objective =  6.7267016289e+04
Solution time =   28.88 sec.  Iterations = 64449  Nodes = 9240
Deterministic time = 11685.07 ticks  (404.68 ticks/sec)

CPLEX> Incumbent solution written to file 'C:\Users\llavin\Desktop\test919\logs\tmpwv4dilfo.cplex.sol'.
CPLEX> Exporting results... 
